c simple example from AI class
p cnf 20 46
-1 -2 0
-1 -3 0
-2 -3 0
-4 -5 0
-4 -6 0
-5 -6 0
-7 -8 0
-7 -9 0
-8 -9 0
-10 -11 0
-10 -12 0
-11 -12 0
-1 5 6 0
-2 4 0
-3 4 0
-4 8 9 0
-5 7 0
-6 7 0
-7 11 12  0
-8 10 0
-9 10 0
-2 13 0
-3 14 0
-5 15 0
-6 16 0
-8 17 0
-9 18 0
-11 19 0
-12 20 0
-13 15 0
-14 16 0
-15 17 0
-16 18 0
-17 19 0
-18 20 0
13 -15 5 0
14 -16 6 0
15 -17 8 0
16 -18 9 0
17 -19 11 0
18 -20 12 0
1 0
-13 0
-14 0
19 0
20 0
